Route #1: 1 5 30 26 20 34 27 12 17 9 23 1
Route #2: 1 22 7 13 43 41 6 44 42 2 18 31 24 1
Route #3: 1 4 32 39 21 36 25 28 15 35 8 19 1
Route #4: 1 3 38 33 16 10 29 1
Route #5: 1 37 40 11 45 14 1
cost 839.7059125002925